# Objective value = 1
S 1
C1,2 0
C1,4 0
C1,10 0
C2,3 0
C2,5 0
C2,11 0
C3,6 0
C3,12 0
C4,5 0
C4,7 0
C4,13 0
C5,6 0
C5,8 0
C5,14 1
C6,9 0
C6,15 0
C7,8 0
C7,16 0
C8,9 0
C8,17 0
C9,18 0
C10,11 0
C10,13 0
C10,19 0
C11,12 0
C11,14 0
C11,20 0
C12,15 0
C12,21 0
C13,14 0
C13,16 0
C13,22 0
C14,15 1
C14,17 0
C14,23 0
C15,18 0
C15,24 0
C16,17 0
C16,25 0
C17,18 0
C17,26 0
C18,27 0
C19,20 0
C19,22 0
C20,21 0
C20,23 0
C21,24 0
C22,23 0
C22,25 0
C23,24 0
C23,26 0
C24,27 0
C25,26 0
C26,27 0
Offset 1
X1,1 0
X1,2 0
X1,3 0
X1,4 0
X1,5 1
X1,6 0
X1,7 0
X1,8 0
X1,9 0
X1,10 0
X1,11 0
X1,12 0
X1,13 0
X1,14 0
X1,15 0
X1,16 0
X1,17 0
X1,18 0
X1,19 0
X1,20 0
X1,21 0
X1,22 0
X1,23 0
X1,24 0
X1,25 0
X1,26 0
X1,27 0
X2,1 0
X2,2 0
X2,3 0
X2,4 0
X2,5 0
X2,6 0
X2,7 0
X2,8 0
X2,9 0
X2,10 0
X2,11 0
X2,12 0
X2,13 0
X2,14 1
X2,15 0
X2,16 0
X2,17 0
X2,18 0
X2,19 0
X2,20 0
X2,21 0
X2,22 0
X2,23 0
X2,24 0
X2,25 0
X2,26 0
X2,27 0
X3,1 0
X3,2 0
X3,3 0
X3,4 0
X3,5 0
X3,6 0
X3,7 0
X3,8 0
X3,9 0
X3,10 0
X3,11 0
X3,12 0
X3,13 0
X3,14 0
X3,15 0
X3,16 0
X3,17 1
X3,18 0
X3,19 0
X3,20 0
X3,21 0
X3,22 0
X3,23 0
X3,24 0
X3,25 0
X3,26 0
X3,27 0
X4,1 0
X4,2 0
X4,3 0
X4,4 0
X4,5 0
X4,6 0
X4,7 0
X4,8 0
X4,9 0
X4,10 0
X4,11 0
X4,12 0
X4,13 0
X4,14 0
X4,15 0
X4,16 0
X4,17 0
X4,18 1
X4,19 0
X4,20 0
X4,21 0
X4,22 0
X4,23 0
X4,24 0
X4,25 0
X4,26 0
X4,27 0
X5,1 0
X5,2 0
X5,3 0
X5,4 0
X5,5 0
X5,6 0
X5,7 0
X5,8 0
X5,9 0
X5,10 0
X5,11 0
X5,12 0
X5,13 0
X5,14 0
X5,15 1
X5,16 0
X5,17 0
X5,18 0
X5,19 0
X5,20 0
X5,21 0
X5,22 0
X5,23 0
X5,24 0
X5,25 0
X5,26 0
X5,27 0
X6,1 0
X6,2 0
X6,3 0
X6,4 0
X6,5 0
X6,6 1
X6,7 0
X6,8 0
X6,9 0
X6,10 0
X6,11 0
X6,12 0
X6,13 0
X6,14 0
X6,15 0
X6,16 0
X6,17 0
X6,18 0
X6,19 0
X6,20 0
X6,21 0
X6,22 0
X6,23 0
X6,24 0
X6,25 0
X6,26 0
X6,27 0
X7,1 0
X7,2 0
X7,3 0
X7,4 0
X7,5 0
X7,6 0
X7,7 0
X7,8 0
X7,9 1
X7,10 0
X7,11 0
X7,12 0
X7,13 0
X7,14 0
X7,15 0
X7,16 0
X7,17 0
X7,18 0
X7,19 0
X7,20 0
X7,21 0
X7,22 0
X7,23 0
X7,24 0
X7,25 0
X7,26 0
X7,27 0
I1 0
I2 0
I3 0
I4 0
I5 1
I6 0
I7 0
I8 0
I9 0
I10 0
I11 0
I12 0
I13 0
I14 1
I15 1
I16 0
I17 0
I18 0
I19 0
I20 0
I21 0
I22 0
I23 0
I24 0
I25 0
I26 0
I27 0
